data/benchmarks/bayes/90-17-9-q.cnf
p cnf 1377 1225
c weights 0.521102 0.47889800000000005 1 1 1 1 1 1 1 1 1 1 1 1 1 1 1 1 1 1 1 1 1 1 1 1 1 1 1 1 1 1 1 1 1 1 1 1 1 1 1 1 1 1 1 1 1 1 1 1 1 1 1 1 1 1 1 1 1 1 1 1 1 1 1 1 1 1 1 1 1 1 1 1 1 1 1 1 1 1 1 1 1 1 1 1 1 1 1 1 1 1 1 1 1 1 1 1 1 1 1 1 1 1 1 1 1 1 1 1 1 1 1 1 1 1 1 1 1 1 1 1 1 1 1 1 1 1 1 1 1 1 1 1 1 1 1 1 1 1 1 1 1 1 1 1 1 1 1 1 1 1 1 1 1 1 1 1 1 1 1 1 1 1 1 1 1 1 1 1 1 1 1 1 1 1 1 1 1 1 1 1 1 1 1 1 1 1 1 1 1 1 1 1 1 1 1 1 1 1 1 1 1 1 1 1 1 1 1 1 1 1 1 1 1 1 1 1 1 1 1 1 1 1 1 1 1 1 1 1 1 1 1 1 1 1 1 1 1 1 1 1 1 1 1 1 1 1 1 1 1 1 1 1 1 1 1 1 1 1 1 1 1 1 1 1 1 1 1 1 1 1 1 1 1 1 1 1 1 1 1 1 1 1 1 1 1 1 1 1 1 1 1 1 1 1 1 1 1 1 1 1 1 1 1 1 1 1 1 1 1 1 1 1 1 1 1 1 1 1 1 1 1 1 1 1 1 1 1 1 1 1 1 1 1 1 1 1 1 1 1 1 1 1 1 1 1 1 1 1 1 1 1 1 1 1 1 1 1 1 1 1 1 1 1 1 1 1 1 1 1 1 1 1 1 1 1 1 1 1 1 1 1 1 1 1 1 1 1 1 1 1 1 1 1 1 1 1 1 1 1 1 1 1 1 1 1 1 1 1 1 1 1 1 1 1 1 1 1 1 1 1 1 1 1 1 1 1 1 1 1 1 1 1 1 1 1 1 1 1 1 1 1 1 1 1 1 1 1 1 1 1 1 1 1 1 1 1 1 1 1 1 1 1 1 1 1 1 1 1 1 1 1 1 1 1 1 1 1 1 1 1 1 1 1 1 1 1 1 1 1 1 1 1 1 1 1 1 1 1 1 1 1 1 1 1 1 1 1 1 1 1 1 1 1 1 1 1 1 1 1 1 1 1 1 1 1 1 1 1 1 1 1 1 1 1 1 1 1 1 1 1 1 1 1 1 1 1 1 1 1 1 1 1 1 1 1 1 1 1 1 1 1 1 1 1 1 1 1 1 1 1 1 1 1 1 1 1 0.5 0.5 0.5 0.5 0.5 0.5 0.5 0.5 0.5 0.5 0.5 0.5 0.5 0.5 0.5 0.5 0.5 0.5 0.5 0.5 0.5 0.5 0.5 0.5 0.5 0.5 0.5 0.5 0.5 0.5 0.5 0.5 0.5 0.5 0.5 0.5 0.5 0.5 0.5 0.5 0.5 0.5 0.5 0.5 0.5 0.5 0.5 0.5 0.5 0.5 0.5 0.5 0.5 0.5 0.5 0.5 0.5 0.5 0.5 0.5 0.5 0.5 0.5 0.5 0.5 0.5 0.5 0.5 0.5 0.5 0.5 0.5 0.5 0.5 0.5 0.5 0.5 0.5 0.5 0.5 0.5 0.5 0.5 0.5 0.5 0.5 0.5 0.5 0.5 0.5 0.5 0.5 0.5 0.5 0.5 0.5 0.5 0.5 0.5 0.5 0.450101 0.549899 0.0876072 0.9123928 0.0737476 0.9262524 0.498481 0.501519 0.5 0.5 0.5 0.5 0.5 0.5 0.5 0.5 0.925535 0.074465 0.381595 0.618405 0.00958506 0.99041494 0.807322 0.19267800000000002 0.5 0.5 0.5 0.5 0.5 0.5 0.5 0.5 0.5 0.5 0.5 0.5 0.5 0.5 0.5 0.5 0.5 0.5 0.5 0.5 0.5 0.5 0.5 0.5 0.5 0.5 0.5 0.5 0.5 0.5 0.5 0.5 0.5 0.5 0.5 0.5 0.5 0.5 0.5 0.5 0.5 0.5 0.5 0.5 0.5 0.5 0.5 0.5 0.5 0.5 0.5 0.5 0.5 0.5 0.5 0.5 0.5 0.5 0.5 0.5 0.5 0.5 0.5 0.5 0.5 0.5 0.5 0.5 0.5 0.5 0.5 0.5 0.5 0.5 0.5 0.5 0.5 0.5 0.5 0.5 0.5 0.5 0.5 0.5 0.5 0.5 0.5 0.5 0.5 0.5 0.5 0.5 0.5 0.5 0.5 0.5 0.5 0.5 0.5 0.5 0.5 0.5 0.5 0.5 0.5 0.5 0.5 0.5 0.5 0.5 0.5 0.5 0.5 0.5 0.5 0.5 0.5 0.5 0.5 0.5 0.5 0.5 0.5 0.5 0.5 0.5 0.5 0.5 0.5 0.5 0.5 0.5 0.5 0.5 0.5 0.5 0.5 0.5 0.5 0.5 0.5 0.5 0.5 0.5 0.5 0.5 0.5 0.5 0.5 0.5 0.5 0.5 0.5 0.5 0.5 0.5 0.5 0.5 0.5 0.5 0.5 0.5 0.5 0.5 0.5 0.5 0.5 0.5 0.5 0.5 0.5 0.5 0.5 0.5 0.5 0.5 0.5 0.5 0.5 0.5 0.00625005 0.99374995 0.221858 0.778142 0.290635 0.709365 0.174846 0.8251539999999999 0.5 0.5 0.5 0.5 0.5 0.5 0.5 0.5 0.158679 0.841321 0.157103 0.842897 0.0406306 0.9593694 0.0396131 0.9603869 0.5 0.5 0.5 0.5 0.816882 0.183118 0.398461 0.601539 0.984292 0.015708000000000055 0.0630881 0.9369119 0.5 0.5 0.5 0.5 0.5 0.5 0.5 0.5 0.5 0.5 0.5 0.5 0.5 0.5 0.5 0.5 0.633903 0.366097 0.752602 0.247398 0.171376 0.828624 0.138208 0.861792 0.5 0.5 0.5 0.5 0.5 0.5 0.5 0.5 0.5 0.5 0.5 0.5 0.5 0.5 0.5 0.5 0.5 0.5 0.5 0.5 0.5 0.5 0.5 0.5 0.337767 0.6622330000000001 0.242167 0.757833 0.944463 0.05553699999999995 0.92688 0.07311999999999996 0.5 0.5 0.5 0.5 0.5 0.5 0.5 0.5 0.554166 0.44583399999999995 0.38542 0.61458 0.681878 0.318122 0.725541 0.274459 0.5 0.5 0.5 0.5 0.5 0.5 0.5 0.5 0.5 0.5 0.5 0.5 0.5 0.5 0.5 0.5 0.5 0.5 0.5 0.5 0.5 0.5 0.5 0.5 0.5 0.5 0.5 0.5 0.5 0.5 0.5 0.5 0.377309 0.622691 0.00579846 0.99420154 0.367316 0.632684 0.934945 0.06505499999999997 0.5 0.5 0.5 0.5 0.5 0.5 0.5 0.5 0.5 0.5 0.5 0.5 0.5 0.5 0.5 0.5 0.5 0.5 0.5 0.5 0.5 0.5 0.5 0.5 0.5 0.5 0.5 0.5 0.5 0.5 0.5 0.5 0.5 0.5 0.5 0.5 0.5 0.5 0.5 0.5 0.5 0.5 0.5 0.5 0.5 0.5 0.5 0.5 0.5 0.5 0.5 0.5 0.5 0.5 0.5 0.5 0.5 0.5 0.5 0.5 0.5 0.5 0.5 0.5 0.5 0.5 0.5 0.5 0.294909 0.705091 0.700638 0.299362 0.323258 0.676742 0.3488 0.6512 0.5 0.5 0.5 0.5 0.5 0.5 0.5 0.5 0.5 0.5 0.5 0.5 0.5 0.5 0.5 0.5 0.5 0.5 0.5 0.5 0.5 0.5 0.5 0.5 0.5 0.5 0.5 0.5 0.5 0.5 0.5 0.5 0.5 0.5 0.5 0.5 0.5 0.5 0.5 0.5 0.5 0.5 0.5 0.5 0.5 0.5 0.5 0.5 0.5 0.5 0.5 0.5 0.5 0.5 0.5 0.5 0.5 0.5 0.5 0.5 0.5 0.5 0.5 0.5 0.5 0.5 0.5 0.5 0.5 0.5 0.5 0.5 0.5 0.5 0.5 0.5 0.5 0.5 0.5 0.5 0.5 0.5 0.5 0.5 0.5 0.5 0.5 0.5 0.5 0.5 0.5 0.5 0.5 0.5 0.5 0.5 0.5 0.5 0.5 0.5 0.5 0.5 0.5 0.5 0.5 0.5 0.5 0.5 0.5 0.5 0.5 0.5 0.5 0.5 0.5 0.5 0.5 0.5 0.5 0.5 0.5 0.5 0.5 0.5 0.217758 0.782242 0.424303 0.575697 0.678892 0.32110799999999995 0.211206 0.788794 0.5 0.5 0.5 0.5 0.5 0.5 0.5 0.5 0.5 0.5 0.5 0.5 0.5 0.5 0.5 0.5 0.5 0.5 0.5 0.5 0.5 0.5 0.5 0.5 0.5 0.5 0.5 0.5 0.5 0.5 0.5 0.5 0.5 0.5 0.5 0.5 0.5 0.5 0.5 0.5 0.199146 0.800854 0.70007 0.29993000000000003 0.668812 0.33118800000000004 0.410352 0.589648 0.5 0.5 0.5 0.5 0.5 0.5 0.5 0.5 0.5 0.5 0.5 0.5 0.5 0.5 0.5 0.5 0.5 0.5 0.5 0.5 0.5 0.5 0.5 0.5 0.5 0.5 0.5 0.5 0.382312 0.617688 0.67078 0.32921999999999996 0.422821 0.577179 0.0391918 0.9608082 0.5 0.5 0.5 0.5 0.5 0.5 0.5 0.5 0.121475 0.878525 0.630077 0.369923 0.486085 0.513915 0.116915 0.883085 0.5 0.5 0.5 0.5 0.5 0.5 0.5 0.5 0.744526 0.255474 0.681539 0.318461 0.299535 0.700465 0.312623 0.687377 0.5 0.5 0.5 0.5 0.5 0.5 0.5 0.5 0.5 0.5 0.5 0.5 0.5 0.5 0.5 0.5 0.5 0.5 0.5 0.5 0.5 0.5 0.5 0.5 0.5 0.5 0.5 0.5 0.5 0.5 0.5 0.5 0.5 0.5 0.5 0.5 0.5 0.5 0.5 0.5 0.5 0.5 0.5 0.5 0.5 0.5 0.5 0.5 0.5 0.5 0.5 0.5 0.5 0.5 0.5 0.5 0.5 0.5 0.5 0.5 0.5 0.5 0.5 0.5 0.5 0.5 0.5 0.5 0.5 0.5 0.5 0.5 0.5 0.5 0.5 0.5 0.5 0.5 0.5 0.5 0.5 0.5 0.5 0.5 0.5 0.5 0.5 0.5 0.5 0.5 0.5 0.5 0.5 0.5 0.5 0.5 0.5 0.5 0.5 0.5 0.5 0.5 0.5 0.5 0.5 0.5 0.5 0.5 0.5 0.5 0.5 0.5 0.5 0.5 0.5 0.5 0.5 0.5 0.5 0.5 0.5 0.5 0.5 0.5 0.5 0.5 0.5 0.5 0.5 0.5 0.5 0.5 0.5 0.5 0.5 0.5 0.5 0.5 0.5 0.5 0.5 0.5 0.5 0.5 0.5 0.5 0.5 0.5 0.304137 0.695863 0.814849 0.18515099999999995 0.423998 0.576002 0.958128 0.04187200000000002 0.831516 0.16848399999999997 0.713134 0.28686599999999995 0.117991 0.882009 0.307758 0.692242 0.5 0.5 0.5 0.5 0.5 0.5 0.5 0.5 0.5 0.5 0.5 0.5 0.5 0.5 0.5 0.5 0.5 0.5 0.5 0.5 0.5 0.5 0.5 0.5 0.515275 0.48472499999999996 0.24374 0.7562599999999999 0.549844 0.450156 0.29159 0.70841 0.460696 0.539304 0.595727 0.404273 0.800486 0.19951399999999997 0.884693 0.11530700000000005 0.5 0.5 0.5 0.5 0.5 0.5 0.5 0.5 0.5 0.5 0.5 0.5 0.5 0.5 0.5 0.5 0.5 0.5 0.5 0.5 0.5 0.5 0.5 0.5 0.5 0.5 0.5 0.5 0.5 0.5 0.5 0.5 0.5 0.5 0.5 0.5 0.5 0.5 0.5 0.5 0.5 0.5 0.5 0.5 0.5 0.5 0.5 0.5 0.5 0.5 0.5 0.5 0.5 0.5 0.5 0.5 0.5 0.5 0.5 0.5 0.538044 0.46195600000000003 0.130239 0.869761 0.515421 0.484579 0.129171 0.870829 0.5 0.5 0.5 0.5 0.5 0.5 0.5 0.5 0.5 0.5 0.5 0.5 0.5 0.5 0.5 0.5 0.5 0.5 0.5 0.5 0.5 0.5 0.5 0.5 0.5 0.5 0.5 0.5 0.5 0.5 0.5 0.5 0.5 0.5 0.5 0.5 0.5 0.5 0.5 0.5 0.70998 0.29001999999999994 0.821005 0.17899500000000002 0.119662 0.880338 0.225401 0.774599 0.849564 0.15043600000000001 0.347464 0.652536 0.566931 0.43306900000000004 0.200932 0.799068 0.5 0.5 0.5 0.5 0.5 0.5 0.5 0.5 0.337522 0.662478 0.111072 0.8889279999999999 0.0962203 0.9037797 0.209836 0.790164 0.5 0.5 0.5 0.5 0.5 0.5 0.5 0.5 0.5 0.5 0.5 0.5 0.5 0.5 0.5 0.5 0.5 0.5 0.5 0.5 0.5 0.5 0.5 0.5 0.5 0.5 0.5 0.5 0.5 0.5 0.5 0.5 0.5 0.5 0.5 0.5 0.5 0.5 0.5 0.5 0.5 0.5 0.5 0.5 0.5 0.5 0.5 0.5 0.5 0.5 0.5 0.5 0.5 0.5 0.5 0.5 0.5 0.5 0.5 0.5 0.5 0.5 0.5 0.5 0.5 0.5 0.5 0.5 0.5 0.5 0.5 0.5 0.5 0.5 0.5 0.5 0.5 0.5 0.5 0.5 0.5 0.5 0.5 0.5 0.5 0.5 0.5 0.5 0.5 0.5 0.5 0.5 0.5 0.5 0.5 0.5 0.5 0.5 0.5 0.5 0.5 0.5 0.5 0.5 0.5 0.5 0.5 0.5 0.5 0.5 0.5 0.5 0.5 0.5 0.5 0.5 0.5 0.5 0.5 0.5 0.5 0.5 0.5 0.5 0.5 0.5 0.5 0.5 0.5 0.5 0.5 0.5 0.5 0.5 0.5 0.5 0.5 0.5 0.5 0.5 0.5 0.5 0.5 0.5 0.439148 0.560852 0.851237 0.14876299999999998 0.49512 0.50488 0.354038 0.6459619999999999 0.5 0.5 0.5 0.5 0.5 0.5 0.5 0.5 0.5 0.5 0.5 0.5 0.5 0.5 0.5 0.5 0.5 0.5 0.5 0.5 0.5 0.5 0.5 0.5 0.917992 0.08200799999999997 0.0604632 0.9395368 0.748375 0.251625 0.198757 0.801243 0.5 0.5 0.5 0.5 0.5 0.5 0.5 0.5 0.5 0.5 0.5 0.5 0.5 0.5 0.5 0.5 0.5 0.5 0.5 0.5 0.5 0.5 0.5 0.5 0.5 0.5 0.5 0.5 0.5 0.5 0.5 0.5 0.5 0.5 0.5 0.5 0.5 0.5 0.5 0.5 0.5 0.5 0.5 0.5 0.5 0.5 0.5 0.5 0.5 0.5 0.5 0.5 0.5 0.5 0.5 0.5 0.5 0.5 0.5 0.5 0.5 0.5 0.5 0.5 0.5 0.5 0.5 0.5 0.5 0.5 0.5 0.5 0.5 0.5 0.5 0.5 0.5 0.5 0.5 0.5 0.5 0.5 0.5 0.5 0.548676 0.45132399999999995 0.389369 0.6106309999999999 0.339857 0.6601429999999999 0.432352 0.5676479999999999 0.5 0.5 0.5 0.5 0.5 0.5 0.5 0.5 0.5 0.5 0.5 0.5 0.5 0.5 0.5 0.5 0.5 0.5 0.5 0.5 0.5 0.5 0.5 0.5 0.5 0.5 0.5 0.5 0.5 0.5 0.5 0.5 0.5 0.5 0.5 0.5 0.5 0.5 0.5 0.5 0.5 0.5 0.5 0.5 0.5 0.5 0.5 0.5 0.678215 0.321785 0.626603 0.373397 0.447013 0.552987 0.173713 0.826287 0.5 0.5 0.5 0.5 0.5 0.5 0.5 0.5 0.5 0.5 0.5 0.5 0.5 0.5 0.5 0.5 0.5 0.5 0.5 0.5 0.5 0.5 0.5 0.5 0.5 0.5 0.5 0.5 0.5 0.5 0.5 0.5 0.5 0.5 0.5 0.5 0.5 0.5 0.5 0.5 0.5 0.5 0.5 0.5 0.5 0.5 0.5 0.5 0.5 0.5 0.5 0.5 0.5 0.5 0.5 0.5 0.5 0.5 0.5 0.5 0.5 0.5 0.5 0.5 0.5 0.5 0.5 0.5 0.5 0.5 0.5 0.5 0.5 0.5 0.5 0.5 0.5 0.5 0.5 0.5 0.5 0.5 0.5 0.5 0.5 0.5 0.5 0.5 0.5 0.5 0.5 0.5 0.5 0.5 0.5 0.5 0.5 0.5 0.5 0.5 0.5 0.5 0.5 0.5 0.5 0.5 0.5 0.5 0.1468 0.8532 0.73214 0.26786 0.709829 0.29017099999999996 0.21898 0.78102 0.5 0.5 0.5 0.5 0.5 0.5 0.5 0.5 0.5 0.5 0.5 0.5 0.5 0.5 0.5 0.5 0.5 0.5 0.5 0.5 0.5 0.5 0.5 0.5 0.5 0.5 0.5 0.5 0.5 0.5 0.5 0.5 0.5 0.5 0.5 0.5 0.5 0.5 0.5 0.5 0.5 0.5 0.5 0.5 0.5 0.5 0.5 0.5 0.5 0.5 0.5 0.5 0.5 0.5 0.5 0.5 0.5 0.5 0.5 0.5 0.5 0.5 0.5 0.5 0.5 0.5 0.5 0.5 0.5 0.5 0.5 0.5 0.749638 0.250362 0.460733 0.5392669999999999 0.797761 0.20223899999999995 0.217433 0.782567 0.5 0.5 0.5 0.5 0.5 0.5 0.5 0.5 0.5 0.5 0.5 0.5 0.5 0.5 0.5 0.5 0.5 0.5 0.5 0.5 0.5 0.5 0.5 0.5 0.5 0.5 0.5 0.5 0.5 0.5 0.5 0.5 0.5 0.5 0.5 0.5 0.5 0.5 0.5 0.5 0.5 0.5 0.5 0.5 0.5 0.5 0.5 0.5 0.5 0.5 0.5 0.5 0.5 0.5 0.5 0.5 0.5 0.5 0.5 0.5 0.5 0.5 0.5 0.5 0.5 0.5 0.5 0.5 0.5 0.5 0.5 0.5 0.5 0.5 0.5 0.5 0.5 0.5 0.5 0.5 0.5 0.5 0.5 0.5 0.5 0.5 0.5 0.5 0.5 0.5 0.5 0.5 0.5 0.5 0.5 0.5 0.5 0.5 0.5 0.5 0.5 0.5 0.5 0.5 0.5 0.5 0.5 0.5 0.5 0.5 0.5 0.5 0.5 0.5 0.5 0.5 0.5 0.5 0.5 0.5 0.5 0.5 0.5 0.5 0.5 0.5 0.5 0.5 0.5 0.5 0.5 0.5 0.5 0.5 0.5 0.5 0.5 0.5 0.5 0.5 0.5 0.5 0.5 0.5 0.235189 0.764811 0.301672 0.6983280000000001 0.543741 0.45625899999999997 0.103138 0.896862 0.5 0.5 0.5 0.5 0.5 0.5 0.5 0.5 0.5 0.5 0.5 0.5 0.5 0.5 0.5 0.5 0.143017 0.856983 0.629415 0.37058500000000005 0.43974 0.56026 0.519782 0.48021800000000003 0.5 0.5 0.5 0.5 0.5 0.5 0.5 0.5 0.5 0.5 0.5 0.5 0.5 0.5 0.5 0.5 0.5 0.5 0.5 0.5 0.5 0.5 0.5 0.5 0.781618 0.21838199999999997 0.0429729 0.9570271 0.545653 0.45434699999999995 0.92928 0.07072 0.5 0.5 0.5 0.5 0.5 0.5 0.5 0.5 0.5 0.5 0.5 0.5 0.5 0.5 0.5 0.5 0.5 0.5 0.5 0.5 0.5 0.5 0.5 0.5 0.5 0.5 0.5 0.5 0.5 0.5 0.5 0.5 0.5 0.5 0.5 0.5 0.5 0.5 0.5 0.5 0.5 0.5 0.5 0.5 0.5 0.5 0.5 0.5 0.5 0.5 0.5 0.5 0.5 0.5 0.5 0.5 0.5 0.5 0.5 0.5 0.5 0.5 0.5 0.5 0.5 0.5 0.5 0.5 0.5 0.5 0.5 0.5 0.5 0.5 0.5 0.5 0.5 0.5 0.5 0.5 0.5 0.5 0.5 0.5 0.5 0.5 0.5 0.5 0.5 0.5 0.5 0.5 0.5 0.5 0.5 0.5 0.5 0.5 0.5 0.5 0.5 0.5 0.5 0.5 0.5 0.5 0.5 0.5 0.5 0.5 0.5 0.5 0.5 0.5 0.5 0.5 0.5 0.5 0.5 0.5 0.5 0.5 0.5 0.5 0.5 0.5 0.5 0.5 0.5 0.5 0.5 0.5 0.5 0.5 0.5 0.5 0.5 0.5 0.5 0.5 0.5 0.5 0.5 0.5 0.5 0.5 0.5 0.5 0.5 0.5 0.5 0.5 0.5 0.5 0.5 0.5 0.5 0.5 0.5 0.5 0.5 0.5 0.5 0.5 0.5 0.5 0.5 0.5 0.5 0.5 0.5 0.5 0.5 0.5 0.5 0.5 0.5 0.5 0.5 0.5 0.494481 0.505519 0.160997 0.8390029999999999 0.770987 0.22901300000000002 0.877791 0.12220900000000001 0.5 0.5 0.5 0.5 0.5 0.5 0.5 0.5 0.5 0.5 0.5 0.5 0.5 0.5 0.5 0.5 0.5 0.5 0.5 0.5 0.5 0.5 0.5 0.5 0.5 0.5 0.5 0.5 0.893151 0.10684899999999997 0.534104 0.465896 0.658453 0.34154700000000005 0.112553 0.887447 0.5 0.5 0.5 0.5 0.5 0.5 0.5 0.5 0.5 0.5 0.5 0.5 0.5 0.5 0.5 0.5 0.5 0.5 0.5 0.5 0.5 0.5 0.5 0.5 0.5 0.5 0.5 0.5 0.5 0.5 0.5 0.5 0.5 0.5 0.5 0.5 0.5 0.5 0.5 0.5 0.5 0.5 0.5 0.5 0.5 0.5 0.5 0.5 0.5 0.5 0.5 0.5 0.5 0.5 0.5 0.5 0.5 0.5 0.5 0.5 0.5 0.5 0.5 0.5 0.5 0.5 0.5 0.5 0.5 0.5 0.5 0.5 0.5 0.5 0.5 0.5 0.5 0.5 0.5 0.5 0.5 0.5 0.5 0.5 0.5 0.5 0.5 0.5 0.5 0.5 0.5 0.5 0.5 0.5 0.5 0.5
-1 2 0
1 -2 0
-2 3 0
2 -3 0
-3 4 0
3 -4 0
-4 5 0
4 -5 0
-5 6 0
5 -6 0
-6 7 0
6 -7 0
-7 8 0
7 -8 0
-8 -9 0
8 9 0
-9 -10 0
9 10 0
-10 -11 0
10 11 0
-11 -12 0
11 12 0
-12 13 0
12 -13 0
-13 -14 0
13 14 0
-14 15 0
14 -15 0
-15 16 0
15 -16 0
-16 -17 0
16 17 0
-1 18 0
1 -18 0
-18 -2 -19 0
-18 2 19 0
18 -2 19 0
18 2 19 0
-19 -3 -20 0
-19 3 -20 0
19 -3 20 0
19 3 -20 0
-20 -4 -21 0
-20 4 21 0
20 -4 -21 0
20 4 -21 0
-21 -5 22 0
-21 5 -22 0
21 -5 22 0
21 5 -22 0
-22 -6 -340 23 0
-22 -6 340 -23 0
-22 6 -341 23 0
-22 6 341 -23 0
22 -6 -342 23 0
22 -6 342 -23 0
22 6 -343 23 0
22 6 343 -23 0
-23 -7 -24 0
-23 7 24 0
23 -7 24 0
23 7 24 0
-24 -8 -348 25 0
-24 -8 348 -25 0
-24 8 -349 25 0
-24 8 349 -25 0
24 -8 -350 25 0
24 -8 350 -25 0
24 8 -351 25 0
24 8 351 -25 0
-25 -9 26 0
-25 9 26 0
25 -9 26 0
25 9 -26 0
-26 -10 27 0
-26 10 -27 0
26 -10 27 0
26 10 27 0
-27 -11 -28 0
-27 11 -28 0
27 -11 -28 0
27 11 28 0
-28 -12 -29 0
-28 12 29 0
28 -12 29 0
28 12 -29 0
-29 -13 30 0
-29 13 30 0
29 -13 30 0
29 13 -30 0
-30 -14 31 0
-30 14 -31 0
30 -14 31 0
30 14 -31 0
-31 -15 32 0
-31 15 -32 0
31 -15 -32 0
31 15 -32 0
-32 -16 -33 0
-32 16 33 0
32 -16 33 0
32 16 -33 0
-33 -17 34 0
-33 17 -34 0
33 -17 34 0
33 17 -34 0
-18 -35 0
18 35 0
-35 -19 36 0
-35 19 -36 0
35 -19 -36 0
35 19 -36 0
-36 -20 -37 0
-36 20 37 0
36 -20 -37 0
36 20 37 0
-37 -21 38 0
-37 21 -38 0
37 -21 -38 0
37 21 -38 0
-38 -22 -39 0
-38 22 -39 0
38 -22 -39 0
38 22 39 0
-39 -23 40 0
-39 23 40 0
39 -23 -40 0
39 23 -40 0
-40 -24 -41 0
-40 24 41 0
40 -24 -41 0
40 24 -41 0
-41 -25 42 0
-41 25 -42 0
41 -25 42 0
41 25 42 0
-42 -26 43 0
-42 26 -43 0
42 -26 -43 0
42 26 43 0
-43 -27 -44 0
-43 27 44 0
43 -27 44 0
43 27 -44 0
-44 -28 -45 0
-44 28 -45 0
44 -28 45 0
44 28 -45 0
-45 -29 -46 0
-45 29 46 0
45 -29 46 0
45 29 -46 0
-46 -30 47 0
-46 30 -47 0
46 -30 -47 0
46 30 47 0
-47 -31 48 0
-47 31 -48 0
47 -31 48 0
47 31 48 0
-48 -32 -442 49 0
-48 -32 442 -49 0
-48 32 -443 49 0
-48 32 443 -49 0
48 -32 -444 49 0
48 -32 444 -49 0
48 32 -445 49 0
48 32 445 -49 0
-49 -33 50 0
-49 33 -50 0
49 -33 -50 0
49 33 50 0
-50 -34 -450 51 0
-50 -34 450 -51 0
-50 34 -451 51 0
-50 34 451 -51 0
50 -34 -452 51 0
50 -34 452 -51 0
50 34 -453 51 0
50 34 453 -51 0
-35 -52 0
35 52 0
-52 -36 -456 53 0
-52 -36 456 -53 0
-52 36 -457 53 0
-52 36 457 -53 0
52 -36 -458 53 0
52 -36 458 -53 0
52 36 -459 53 0
52 36 459 -53 0
-53 -37 54 0
-53 37 -54 0
53 -37 54 0
53 37 -54 0
-54 -38 55 0
-54 38 55 0
54 -38 -55 0
54 38 -55 0
-55 -39 -468 56 0
-55 -39 468 -56 0
-55 39 -469 56 0
-55 39 469 -56 0
55 -39 -470 56 0
55 -39 470 -56 0
55 39 -471 56 0
55 39 471 -56 0
-56 -40 -57 0
-56 40 57 0
56 -40 57 0
56 40 -57 0
-57 -41 -58 0
-57 41 58 0
57 -41 58 0
57 41 58 0
-58 -42 59 0
-58 42 59 0
58 -42 -59 0
58 42 -59 0
-59 -43 -484 60 0
-59 -43 484 -60 0
-59 43 -485 60 0
-59 43 485 -60 0
59 -43 -486 60 0
59 -43 486 -60 0
59 43 -487 60 0
59 43 487 -60 0
-60 -44 -61 0
-60 44 -61 0
60 -44 61 0
60 44 -61 0
-61 -45 -492 62 0
-61 -45 492 -62 0
-61 45 -493 62 0
-61 45 493 -62 0
61 -45 -494 62 0
61 -45 494 -62 0
61 45 -495 62 0
61 45 495 -62 0
-62 -46 63 0
-62 46 -63 0
62 -46 63 0
62 46 -63 0
-63 -47 64 0
-63 47 -64 0
63 -47 -64 0
63 47 -64 0
-64 -48 65 0
-64 48 -65 0
64 -48 -65 0
64 48 65 0
-65 -49 -66 0
-65 49 66 0
65 -49 -66 0
65 49 66 0
-66 -50 -512 67 0
-66 -50 512 -67 0
-66 50 -513 67 0
-66 50 513 -67 0
66 -50 -514 67 0
66 -50 514 -67 0
66 50 -515 67 0
66 50 515 -67 0
-67 -51 -68 0
-67 51 68 0
67 -51 68 0
67 51 68 0
-52 69 0
52 -69 0
-69 -53 70 0
-69 53 -70 0
69 -53 -70 0
69 53 -70 0
-70 -54 -71 0
-70 54 -71 0
70 -54 -71 0
70 54 71 0
-71 -55 -72 0
-71 55 72 0
71 -55 -72 0
71 55 -72 0
-72 -56 73 0
-72 56 73 0
72 -56 73 0
72 56 -73 0
-73 -57 74 0
-73 57 74 0
73 -57 74 0
73 57 -74 0
-74 -58 -75 0
-74 58 75 0
74 -58 75 0
74 58 75 0
-75 -59 -76 0
-75 59 76 0
75 -59 -76 0
75 59 76 0
-76 -60 -550 77 0
-76 -60 550 -77 0
-76 60 -551 77 0
-76 60 551 -77 0
76 -60 -552 77 0
76 -60 552 -77 0
76 60 -553 77 0
76 60 553 -77 0
-77 -61 78 0
-77 61 -78 0
77 -61 78 0
77 61 78 0
-78 -62 79 0
-78 62 -79 0
78 -62 79 0
78 62 -79 0
-79 -63 80 0
-79 63 -80 0
79 -63 80 0
79 63 -80 0
-80 -64 81 0
-80 64 81 0
80 -64 81 0
80 64 -81 0
-81 -65 82 0
-81 65 -82 0
81 -65 -82 0
81 65 -82 0
-82 -66 83 0
-82 66 83 0
82 -66 83 0
82 66 -83 0
-83 -67 -84 0
-83 67 84 0
83 -67 84 0
83 67 84 0
-84 -68 85 0
-84 68 -85 0
84 -68 85 0
84 68 -85 0
-69 86 0
69 -86 0
-86 -70 87 0
-86 70 -87 0
86 -70 -87 0
86 70 87 0
-87 -71 88 0
-87 71 -88 0
87 -71 88 0
87 71 88 0
-88 -72 89 0
-88 72 89 0
88 -72 -89 0
88 72 89 0
-89 -73 90 0
-89 73 -90 0
89 -73 -90 0
89 73 -90 0
-90 -74 91 0
-90 74 -91 0
90 -74 91 0
90 74 -91 0
-91 -75 -92 0
-91 75 92 0
91 -75 -92 0
91 75 92 0
-92 -76 93 0
-92 76 -93 0
92 -76 -93 0
92 76 93 0
-93 -77 -616 94 0
-93 -77 616 -94 0
-93 77 -617 94 0
-93 77 617 -94 0
93 -77 -618 94 0
93 -77 618 -94 0
93 77 -619 94 0
93 77 619 -94 0
-94 -78 95 0
-94 78 95 0
94 -78 -95 0
94 78 95 0
-95 -79 -96 0
-95 79 -96 0
95 -79 -96 0
95 79 96 0
-96 -80 -97 0
-96 80 97 0
96 -80 -97 0
96 80 -97 0
-97 -81 -98 0
-97 81 98 0
97 -81 -98 0
97 81 98 0
-98 -82 -99 0
-98 82 99 0
98 -82 99 0
98 82 99 0
-99 -83 -640 100 0
-99 -83 640 -100 0
-99 83 -641 100 0
-99 83 641 -100 0
99 -83 -642 100 0
99 -83 642 -100 0
99 83 -643 100 0
99 83 643 -100 0
-100 -84 101 0
-100 84 101 0
100 -84 101 0
100 84 -101 0
-101 -85 102 0
-101 85 102 0
101 -85 -102 0
101 85 -102 0
-86 103 0
86 -103 0
-103 -87 104 0
-103 87 104 0
103 -87 -104 0
103 87 104 0
-104 -88 -658 105 0
-104 -88 658 -105 0
-104 88 -659 105 0
-104 88 659 -105 0
104 -88 -660 105 0
104 -88 660 -105 0
104 88 -661 105 0
104 88 661 -105 0
-105 -89 106 0
-105 89 106 0
105 -89 106 0
105 89 -106 0
-106 -90 -666 107 0
-106 -90 666 -107 0
-106 90 -667 107 0
-106 90 667 -107 0
106 -90 -668 107 0
106 -90 668 -107 0
106 90 -669 107 0
106 90 669 -107 0
-107 -91 108 0
-107 91 -108 0
107 -91 -108 0
107 91 -108 0
-108 -92 -674 109 0
-108 -92 674 -109 0
-108 92 -675 109 0
-108 92 675 -109 0
108 -92 -676 109 0
108 -92 676 -109 0
108 92 -677 109 0
108 92 677 -109 0
-109 -93 -110 0
-109 93 110 0
109 -93 -110 0
109 93 110 0
-110 -94 111 0
-110 94 111 0
110 -94 -111 0
110 94 111 0
-111 -95 112 0
-111 95 -112 0
111 -95 112 0
111 95 -112 0
-112 -96 113 0
-112 96 -113 0
112 -96 -113 0
112 96 -113 0
-113 -97 114 0
-113 97 -114 0
113 -97 114 0
113 97 114 0
-114 -98 115 0
-114 98 -115 0
114 -98 -115 0
114 98 -115 0
-115 -99 -116 0
-115 99 116 0
115 -99 116 0
115 99 116 0
-116 -100 117 0
-116 100 -117 0
116 -100 -117 0
116 100 -117 0
-117 -101 118 0
-117 101 -118 0
117 -101 -118 0
117 101 -118 0
-118 -102 -119 0
-118 102 -119 0
118 -102 119 0
118 102 119 0
-103 120 0
103 -120 0
-120 -104 -121 0
-120 104 -121 0
120 -104 121 0
120 104 -121 0
-121 -105 -122 0
-121 105 122 0
121 -105 -122 0
121 105 122 0
-122 -106 123 0
-122 106 123 0
122 -106 -123 0
122 106 -123 0
-123 -107 -124 0
-123 107 124 0
123 -107 124 0
123 107 124 0
-124 -108 125 0
-124 108 125 0
124 -108 -125 0
124 108 -125 0
-125 -109 -126 0
-125 109 126 0
125 -109 126 0
125 109 126 0
-126 -110 -127 0
-126 110 -127 0
126 -110 -127 0
126 110 127 0
-127 -111 -128 0
-127 111 128 0
127 -111 128 0
127 111 -128 0
-128 -112 -752 129 0
-128 -112 752 -129 0
-128 112 -753 129 0
-128 112 753 -129 0
128 -112 -754 129 0
128 -112 754 -129 0
128 112 -755 129 0
128 112 755 -129 0
-129 -113 -756 130 0
-129 -113 756 -130 0
-129 113 -757 130 0
-129 113 757 -130 0
129 -113 -758 130 0
129 -113 758 -130 0
129 113 -759 130 0
129 113 759 -130 0
-130 -114 -131 0
-130 114 131 0
130 -114 -131 0
130 114 -131 0
-131 -115 -132 0
-131 115 132 0
131 -115 132 0
131 115 132 0
-132 -116 133 0
-132 116 133 0
132 -116 -133 0
132 116 -133 0
-133 -117 -772 134 0
-133 -117 772 -134 0
-133 117 -773 134 0
-133 117 773 -134 0
133 -117 -774 134 0
133 -117 774 -134 0
133 117 -775 134 0
133 117 775 -134 0
-134 -118 -776 135 0
-134 -118 776 -135 0
-134 118 -777 135 0
-134 118 777 -135 0
134 -118 -778 135 0
134 -118 778 -135 0
134 118 -779 135 0
134 118 779 -135 0
-135 -119 136 0
-135 119 136 0
135 -119 -136 0
135 119 136 0
-120 -137 0
120 137 0
-137 -121 -138 0
-137 121 -138 0
137 -121 138 0
137 121 138 0
-138 -122 -139 0
-138 122 -139 0
138 -122 139 0
138 122 139 0
-139 -123 -140 0
-139 123 140 0
139 -123 -140 0
139 123 140 0
-140 -124 -141 0
-140 124 141 0
140 -124 141 0
140 124 141 0
-141 -125 142 0
-141 125 -142 0
141 -125 142 0
141 125 142 0
-142 -126 -143 0
-142 126 143 0
142 -126 143 0
142 126 143 0
-143 -127 -810 144 0
-143 -127 810 -144 0
-143 127 -811 144 0
-143 127 811 -144 0
143 -127 -812 144 0
143 -127 812 -144 0
143 127 -813 144 0
143 127 813 -144 0
-144 -128 -145 0
-144 128 -145 0
144 -128 145 0
144 128 -145 0
-145 -129 146 0
-145 129 -146 0
145 -129 -146 0
145 129 146 0
-146 -130 147 0
-146 130 -147 0
146 -130 -147 0
146 130 -147 0
-147 -131 -148 0
-147 131 148 0
147 -131 -148 0
147 131 148 0
-148 -132 -149 0
-148 132 -149 0
148 -132 149 0
148 132 149 0
-149 -133 -834 150 0
-149 -133 834 -150 0
-149 133 -835 150 0
-149 133 835 -150 0
149 -133 -836 150 0
149 -133 836 -150 0
149 133 -837 150 0
149 133 837 -150 0
-150 -134 -838 151 0
-150 -134 838 -151 0
-150 134 -839 151 0
-150 134 839 -151 0
150 -134 -840 151 0
150 -134 840 -151 0
150 134 -841 151 0
150 134 841 -151 0
-151 -135 152 0
-151 135 152 0
151 -135 -152 0
151 135 -152 0
-152 -136 -846 153 0
-152 -136 846 -153 0
-152 136 -847 153 0
-152 136 847 -153 0
152 -136 -848 153 0
152 -136 848 -153 0
152 136 -849 153 0
152 136 849 -153 0
-137 -154 0
137 154 0
-154 -138 -155 0
-154 138 -155 0
154 -138 155 0
154 138 -155 0
-155 -139 156 0
-155 139 156 0
155 -139 156 0
155 139 -156 0
-156 -140 -157 0
-156 140 157 0
156 -140 -157 0
156 140 -157 0
-157 -141 158 0
-157 141 -158 0
157 -141 -158 0
157 141 -158 0
-158 -142 -159 0
-158 142 -159 0
158 -142 159 0
158 142 -159 0
-159 -143 160 0
-159 143 -160 0
159 -143 -160 0
159 143 -160 0
-160 -144 -161 0
-160 144 -161 0
160 -144 161 0
160 144 -161 0
-161 -145 162 0
-161 145 -162 0
161 -145 -162 0
161 145 162 0
-162 -146 -163 0
-162 146 163 0
162 -146 163 0
162 146 163 0
-163 -147 164 0
-163 147 164 0
163 -147 164 0
163 147 -164 0
-164 -148 165 0
-164 148 165 0
164 -148 -165 0
164 148 165 0
-165 -149 -166 0
-165 149 166 0
165 -149 166 0
165 149 -166 0
-166 -150 167 0
-166 150 167 0
166 -150 -167 0
166 150 167 0
-167 -151 -168 0
-167 151 -168 0
167 -151 168 0
167 151 168 0
-168 -152 -169 0
-168 152 169 0
168 -152 169 0
168 152 169 0
-169 -153 170 0
-169 153 -170 0
169 -153 170 0
169 153 -170 0
-154 171 0
154 -171 0
-171 -155 172 0
-171 155 172 0
171 -155 172 0
171 155 -172 0
-172 -156 -922 173 0
-172 -156 922 -173 0
-172 156 -923 173 0
-172 156 923 -173 0
172 -156 -924 173 0
172 -156 924 -173 0
172 156 -925 173 0
172 156 925 -173 0
-173 -157 174 0
-173 157 174 0
173 -157 -174 0
173 157 174 0
-174 -158 -175 0
-174 158 -175 0
174 -158 175 0
174 158 -175 0
-175 -159 -176 0
-175 159 176 0
175 -159 176 0
175 159 -176 0
-176 -160 -938 177 0
-176 -160 938 -177 0
-176 160 -939 177 0
-176 160 939 -177 0
176 -160 -940 177 0
176 -160 940 -177 0
176 160 -941 177 0
176 160 941 -177 0
-177 -161 -178 0
-177 161 -178 0
177 -161 178 0
177 161 178 0
-178 -162 -179 0
-178 162 -179 0
178 -162 179 0
178 162 -179 0
-179 -163 -180 0
-179 163 180 0
179 -163 180 0
179 163 180 0
-180 -164 181 0
-180 164 181 0
180 -164 181 0
180 164 -181 0
-181 -165 182 0
-181 165 -182 0
181 -165 -182 0
181 165 182 0
-182 -166 183 0
-182 166 -183 0
182 -166 -183 0
182 166 -183 0
-183 -167 -184 0
-183 167 184 0
183 -167 -184 0
183 167 -184 0
-184 -168 -185 0
-184 168 185 0
184 -168 -185 0
184 168 -185 0
-185 -169 -186 0
-185 169 186 0
185 -169 -186 0
185 169 186 0
-186 -170 187 0
-186 170 -187 0
186 -170 -187 0
186 170 -187 0
-171 188 0
171 -188 0
-188 -172 -984 189 0
-188 -172 984 -189 0
-188 172 -985 189 0
-188 172 985 -189 0
188 -172 -986 189 0
188 -172 986 -189 0
188 172 -987 189 0
188 172 987 -189 0
-189 -173 190 0
-189 173 190 0
189 -173 190 0
189 173 -190 0
-190 -174 191 0
-190 174 -191 0
190 -174 191 0
190 174 191 0
-191 -175 -192 0
-191 175 -192 0
191 -175 -192 0
191 175 192 0
-192 -176 193 0
-192 176 -193 0
192 -176 193 0
192 176 -193 0
-193 -177 194 0
-193 177 -194 0
193 -177 -194 0
193 177 194 0
-194 -178 -195 0
-194 178 195 0
194 -178 195 0
194 178 -195 0
-195 -179 -1012 196 0
-195 -179 1012 -196 0
-195 179 -1013 196 0
-195 179 1013 -196 0
195 -179 -1014 196 0
195 -179 1014 -196 0
195 179 -1015 196 0
195 179 1015 -196 0
-196 -180 197 0
-196 180 197 0
196 -180 197 0
196 180 -197 0
-197 -181 198 0
-197 181 -198 0
197 -181 -198 0
197 181 198 0
-198 -182 -199 0
-198 182 199 0
198 -182 -199 0
198 182 199 0
-199 -183 200 0
-199 183 200 0
199 -183 -200 0
199 183 200 0
-200 -184 -201 0
-200 184 -201 0
200 -184 201 0
200 184 201 0
-201 -185 202 0
-201 185 202 0
201 -185 -202 0
201 185 202 0
-202 -186 203 0
-202 186 203 0
202 -186 -203 0
202 186 203 0
-203 -187 -204 0
-203 187 -204 0
203 -187 -204 0
203 187 204 0
-188 205 0
188 -205 0
-205 -189 -206 0
-205 189 -206 0
205 -189 -206 0
205 189 206 0
-206 -190 -207 0
-206 190 207 0
206 -190 207 0
206 190 -207 0
-207 -191 -208 0
-207 191 208 0
207 -191 208 0
207 191 -208 0
-208 -192 -209 0
-208 192 209 0
208 -192 -209 0
208 192 209 0
-209 -193 210 0
-209 193 -210 0
209 -193 -210 0
209 193 -210 0
-210 -194 -1070 211 0
-210 -194 1070 -211 0
-210 194 -1071 211 0
-210 194 1071 -211 0
210 -194 -1072 211 0
210 -194 1072 -211 0
210 194 -1073 211 0
210 194 1073 -211 0
-211 -195 -212 0
-211 195 -212 0
211 -195 -212 0
211 195 212 0
-212 -196 -213 0
-212 196 -213 0
212 -196 213 0
212 196 -213 0
-213 -197 214 0
-213 197 214 0
213 -197 -214 0
213 197 214 0
-214 -198 215 0
-214 198 215 0
214 -198 215 0
214 198 -215 0
-215 -199 216 0
-215 199 -216 0
215 -199 216 0
215 199 216 0
-216 -200 217 0
-216 200 -217 0
216 -200 -217 0
216 200 217 0
-217 -201 -218 0
-217 201 218 0
217 -201 218 0
217 201 -218 0
-218 -202 219 0
-218 202 -219 0
218 -202 219 0
218 202 -219 0
-219 -203 220 0
-219 203 220 0
219 -203 220 0
219 203 -220 0
-220 -204 -1110 221 0
-220 -204 1110 -221 0
-220 204 -1111 221 0
-220 204 1111 -221 0
220 -204 -1112 221 0
220 -204 1112 -221 0
220 204 -1113 221 0
220 204 1113 -221 0
-205 222 0
205 -222 0
-222 -206 223 0
-222 206 -223 0
222 -206 -223 0
222 206 -223 0
-223 -207 -224 0
-223 207 224 0
223 -207 -224 0
223 207 -224 0
-224 -208 225 0
-224 208 -225 0
224 -208 -225 0
224 208 -225 0
-225 -209 -226 0
-225 209 226 0
225 -209 -226 0
225 209 226 0
-226 -210 -227 0
-226 210 227 0
226 -210 227 0
226 210 227 0
-227 -211 -228 0
-227 211 228 0
227 -211 228 0
227 211 228 0
-228 -212 229 0
-228 212 -229 0
228 -212 -229 0
228 212 229 0
-229 -213 -230 0
-229 213 230 0
229 -213 230 0
229 213 -230 0
-230 -214 -231 0
-230 214 -231 0
230 -214 231 0
230 214 -231 0
-231 -215 232 0
-231 215 232 0
231 -215 232 0
231 215 -232 0
-232 -216 -233 0
-232 216 233 0
232 -216 -233 0
232 216 233 0
-233 -217 -234 0
-233 217 234 0
233 -217 234 0
233 217 -234 0
-234 -218 235 0
-234 218 235 0
234 -218 235 0
234 218 -235 0
-235 -219 236 0
-235 219 -236 0
235 -219 -236 0
235 219 -236 0
-236 -220 -237 0
-236 220 -237 0
236 -220 237 0
236 220 237 0
-237 -221 -238 0
-237 221 238 0
237 -221 238 0
237 221 238 0
-222 239 0
222 -239 0
-239 -223 240 0
-239 223 240 0
239 -223 -240 0
239 223 240 0
-240 -224 -1186 241 0
-240 -224 1186 -241 0
-240 224 -1187 241 0
-240 224 1187 -241 0
240 -224 -1188 241 0
240 -224 1188 -241 0
240 224 -1189 241 0
240 224 1189 -241 0
-241 -225 242 0
-241 225 242 0
241 -225 -242 0
241 225 -242 0
-242 -226 -243 0
-242 226 243 0
242 -226 243 0
242 226 243 0
-243 -227 -1198 244 0
-243 -227 1198 -244 0
-243 227 -1199 244 0
-243 227 1199 -244 0
243 -227 -1200 244 0
243 -227 1200 -244 0
243 227 -1201 244 0
243 227 1201 -244 0
-244 -228 -245 0
-244 228 245 0
244 -228 245 0
244 228 245 0
-245 -229 -246 0
-245 229 -246 0
245 -229 -246 0
245 229 246 0
-246 -230 247 0
-246 230 247 0
246 -230 -247 0
246 230 -247 0
-247 -231 -1214 248 0
-247 -231 1214 -248 0
-247 231 -1215 248 0
-247 231 1215 -248 0
247 -231 -1216 248 0
247 -231 1216 -248 0
247 231 -1217 248 0
247 231 1217 -248 0
-248 -232 -249 0
-248 232 249 0
248 -232 249 0
248 232 249 0
-249 -233 -250 0
-249 233 250 0
249 -233 -250 0
249 233 -250 0
-250 -234 -251 0
-250 234 -251 0
250 -234 -251 0
250 234 251 0
-251 -235 -252 0
-251 235 252 0
251 -235 -252 0
251 235 -252 0
-252 -236 -253 0
-252 236 253 0
252 -236 253 0
252 236 -253 0
-253 -237 254 0
-253 237 -254 0
253 -237 254 0
253 237 -254 0
-254 -238 255 0
-254 238 -255 0
254 -238 255 0
254 238 -255 0
-239 256 0
239 -256 0
-256 -240 -257 0
-256 240 257 0
256 -240 257 0
256 240 257 0
-257 -241 258 0
-257 241 258 0
257 -241 -258 0
257 241 258 0
-258 -242 259 0
-258 242 -259 0
258 -242 259 0
258 242 259 0
-259 -243 260 0
-259 243 260 0
259 -243 260 0
259 243 -260 0
-260 -244 261 0
-260 244 261 0
260 -244 -261 0
260 244 261 0
-261 -245 262 0
-261 245 -262 0
261 -245 -262 0
261 245 -262 0
-262 -246 263 0
-262 246 263 0
262 -246 -263 0
262 246 -263 0
-263 -247 -264 0
-263 247 264 0
263 -247 -264 0
263 247 -264 0
-264 -248 265 0
-264 248 -265 0
264 -248 -265 0
264 248 265 0
-265 -249 266 0
-265 249 -266 0
265 -249 -266 0
265 249 -266 0
-266 -250 -267 0
-266 250 267 0
266 -250 -267 0
266 250 267 0
-267 -251 -268 0
-267 251 -268 0
267 -251 -268 0
267 251 268 0
-268 -252 269 0
-268 252 -269 0
268 -252 269 0
268 252 269 0
-269 -253 -270 0
-269 253 270 0
269 -253 270 0
269 253 -270 0
-270 -254 271 0
-270 254 271 0
270 -254 -271 0
270 254 -271 0
-271 -255 -1308 272 0
-271 -255 1308 -272 0
-271 255 -1309 272 0
-271 255 1309 -272 0
271 -255 -1310 272 0
271 -255 1310 -272 0
271 255 -1311 272 0
271 255 1311 -272 0
-256 273 0
256 -273 0
-273 -257 -274 0
-273 257 274 0
273 -257 274 0
273 257 -274 0
-274 -258 275 0
-274 258 -275 0
274 -258 -275 0
274 258 -275 0
-275 -259 -276 0
-275 259 276 0
275 -259 -276 0
275 259 -276 0
-276 -260 -1326 277 0
-276 -260 1326 -277 0
-276 260 -1327 277 0
-276 260 1327 -277 0
276 -260 -1328 277 0
276 -260 1328 -277 0
276 260 -1329 277 0
276 260 1329 -277 0
-277 -261 278 0
-277 261 -278 0
277 -261 278 0
277 261 278 0
-278 -262 -279 0
-278 262 -279 0
278 -262 279 0
278 262 279 0
-279 -263 -280 0
-279 263 280 0
279 -263 -280 0
279 263 280 0
-280 -264 281 0
-280 264 281 0
280 -264 281 0
280 264 -281 0
-281 -265 -282 0
-281 265 -282 0
281 -265 -282 0
281 265 282 0
-282 -266 -283 0
-282 266 -283 0
282 -266 283 0
282 266 -283 0
-283 -267 -284 0
-283 267 -284 0
283 -267 284 0
283 267 -284 0
-284 -268 -285 0
-284 268 285 0
284 -268 285 0
284 268 285 0
-285 -269 -286 0
-285 269 286 0
285 -269 286 0
285 269 286 0
-286 -270 -287 0
-286 270 -287 0
286 -270 -287 0
286 270 287 0
-287 -271 288 0
-287 271 288 0
287 -271 288 0
287 271 -288 0
-288 -272 289 0
-288 272 -289 0
288 -272 289 0
288 272 -289 0
289 0
