data/benchmarks/bayes/90-17-9-q.gr
p tw 1377 1208
36 53
48 445
67 68
214 230
247 264
99 100
96 113
118 778
18 35
172 987
159 160
8 9
188 205
40 41
21 37
251 252
100 101
132 133
177 940
129 146
106 669
192 193
133 772
10 27
62 492
41 42
221 238
73 74
153 848
284 285
195 1012
133 134
162 179
6 340
14 15
179 1013
225 226
43 60
43 487
74 75
254 271
143 812
106 107
277 1328
103 120
36 457
90 666
55 470
166 167
15 16
195 212
130 757
47 48
226 227
258 259
107 108
88 104
136 153
231 1217
24 348
199 200
269 286
180 196
48 49
61 495
228 245
29 45
80 81
77 94
259 260
272 288
140 141
50 513
121 137
227 1201
150 838
169 186
51 450
232 233
213 229
81 82
261 278
134 839
62 78
99 643
110 127
109 675
173 174
243 260
22 23
202 219
60 553
3 19
188 986
51 68
233 234
265 266
246 262
114 115
95 111
143 160
23 342
155 171
206 207
187 203
55 56
235 252
83 640
36 52
48 444
266 267
247 263
96 112
147 148
172 986
128 144
207 208
239 240
220 236
211 1072
268 285
245 262
39 471
177 939
129 145
161 177
10 26
240 241
221 237
153 847
253 269
102 118
25 42
8 349
181 182
77 619
162 178
194 210
179 1012
43 59
273 274
254 270
143 811
36 456
135 151
214 215
127 812
17 34
195 211
227 243
76 92
109 126
136 152
149 836
168 184
21 22
105 659
201 218
61 494
50 67
228 244
260 276
77 93
113 114
248 1214
142 159
150 837
169 185
205 206
54 55
32 445
133 775
83 100
134 838
261 277
110 126
146 147
109 674
175 192
276 1327
24 41
202 218
51 67
87 88
84 101
116 133
143 159
179 180
23 341
90 669
117 772
28 29
176 193
173 923
9 25
50 453
57 74
235 251
88 89
210 1070
260 1327
120 121
129 755
117 134
149 166
180 181
29 30
113 756
209 226
61 62
58 75
42 58
90 107
211 1071
121 122
268 284
39 470
150 167
134 150
2 3
108 677
177 938
213 214
221 1112
31 48
241 1188
62 63
51 453
242 259
94 95
91 108
75 91
153 846
123 140
154 155
3 4
8 348
135 779
35 36
183 200
32 49
16 32
45 495
64 81
246 247
95 96
127 128
143 810
124 141
108 124
94 616
5 22
36 37
127 811
216 233
17 33
65 82
49 65
279 280
97 114
83 643
128 129
109 125
129 759
160 161
157 174
6 23
149 835
220 221
176 938
105 658
69 70
201 217
249 266
50 66
101 102
98 115
82 98
161 162
142 158
10 11
190 207
39 56
23 39
253 254
32 444
234 250
83 99
131 148
160 938
194 195
175 191
43 44
223 240
276 1326
24 40
72 89
56 72
286 287
267 283
135 136
128 753
116 132
164 181
67 514
176 192
227 228
208 224
76 77
173 922
50 452
57 73
104 661
272 1310
256 273
260 1326
129 754
287 288
168 169
149 165
220 1110
197 214
30 46
209 225
260 261
241 257
257 274
90 106
248 1217
150 166
221 1111
108 676
182 198
31 47
241 1187
261 262
242 258
123 139
133 836
152 849
135 778
189 987
183 199
215 231
45 494
231 248
64 80
172 925
124 140
156 172
9 10
5 21
38 55
117 775
216 232
248 264
264 281
97 113
130 147
210 1073
157 173
189 205
42 43
268 269
113 759
71 88
249 265
196 1013
134 135
60 487
163 180
12 29
53 457
107 666
190 206
34 453
75 76
255 272
194 1070
104 121
56 471
131 147
16 17
196 213
13 30
66 512
45 62
223 239
243 1200
108 109
272 1308
105 122
128 752
137 154
25 349
92 677
164 180
94 619
49 50
67 513
46 63
244 1201
229 246
78 95
104 660
109 110
22 343
76 552
138 155
170 187
201 202
19 36
197 213
50 51
134 777
230 247
82 83
262 279
79 96
63 79
176 941
77 553
111 128
142 143
151 838
171 188
23 24
203 220
20 37
4 20
234 235
52 69
83 84
263 280
115 116
112 129
100 640
144 161
175 176
160 941
24 25
133 835
204 221
56 57
152 848
53 70
37 53
49 445
85 102
189 986
116 117
172 924
236 253
267 268
59 486
145 162
177 194
208 209
26 43
57 58
167 168
237 254
38 54
89 90
93 618
70 86
86 103
118 135
271 1308
149 150
130 146
178 195
30 31
210 227
27 44
11 27
134 772
220 1113
241 242
90 91
200 201
247 1216
71 87
255 1309
119 136
112 753
196 1012
151 168
270 287
182 183
163 179
31 32
141 142
211 228
12 28
53 456
60 77
44 60
34 452
88 661
255 271
123 124
144 812
274 275
104 120
152 169
1 18
215 216
204 1110
196 212
64 65
174 175
224 1186
45 61
243 1199
93 110
244 261
156 157
5 6
185 202
25 348
118 777
248 249
229 245
97 98
78 94
126 143
22 342
76 551
189 190
170 186
148 149
136 849
218 235
19 35
134 776
281 282
52 459
106 668
156 925
262 278
111 127
222 223
203 219
107 669
263 279
43 486
194 1073
144 160
122 123
240 1189
277 1327
55 469
252 269
236 252
85 101
130 756
283 284
59 485
177 193
26 42
231 1216
59 76
237 253
269 285
93 617
118 134
50 512
210 226
63 64
227 1200
255 1308
247 1215
92 109
270 286
62 495
112 752
151 167
4 5
99 642
184 201
33 50
151 841
195 1015
211 227
243 259
88 660
6 343
60 552
125 142
144 811
188 985
100 643
37 38
217 234
34 51
66 83
244 260
243 1198
48 443
158 175
7 24
185 201
118 776
70 71
172 985
67 84
250 267
99 116
24 351
130 131
76 550
159 176
11 12
191 208
40 57
136 848
218 234
251 268
106 667
100 117
150 841
156 924
132 149
163 164
192 209
44 45
224 241
41 58
25 41
73 90
77 618
133 150
43 485
165 182
196 197
14 31
277 1326
155 156
225 242
55 468
74 91
288 289
106 123
224 1189
137 138
247 248
96 97
166 183
18 19
198 215
15 32
229 230
47 64
188 189
231 1215
258 275
59 75
107 124
139 156
61 493
280 281
129 130
199 216
48 65
262 263
80 97
227 1199
111 112
150 836
92 108
140 157
133 774
62 494
172 189
203 204
99 641
162 163
184 200
232 249
33 49
195 1014
81 98
144 145
60 551
254 255
125 141
103 104
188 984
173 190
84 100
179 1015
22 39
236 237
217 233
195 196
265 282
23 340
36 459
66 82
90 668
114 131
177 178
130 759
48 442
158 174
206 223
7 23
117 133
55 72
269 270
172 984
250 266
118 119
228 229
99 115
24 350
77 78
147 164
58 74
210 211
211 1070
191 207
169 170
239 256
39 469
40 56
150 840
151 152
51 452
110 111
132 148
91 107
243 244
134 841
224 240
202 203
109 677
73 89
77 617
32 48
43 484
165 181
143 144
14 30
235 236
106 122
127 810
65 81
83 642
198 214
129 758
47 63
6 22
149 834
139 155
61 492
98 114
21 38
80 96
177 941
150 835
113 130
39 55
227 1198
32 443
133 773
172 188
25 26
205 222
153 849
54 71
8 351
146 163
72 88
143 813
87 104
90 667
272 1309
50 451
179 196
28 45
129 753
120 137
257 273
105 661
180 197
61 78
39 468
248 1216
221 1110
108 675
272 289
121 138
150 839
153 170
241 1186
51 451
2 19
213 230
134 840
94 111
109 676
135 777
231 247
276 1329
84 85
45 493
154 171
217 218
35 52
176 177
246 263
95 112
127 144
23 343
117 774
264 280
117 118
173 925
187 204
83 641
210 1072
250 251
68 85
129 757
209 210
260 1329
58 59
128 145
238 255
160 177
113 758
191 192
150 151
220 237
60 486
211 1073
69 86
101 118
242 243
150 834
113 129
91 92
161 178
271 288
32 442
224 225
56 470
183 184
253 270
54 70
32 33
102 119
212 229
13 29
8 350
165 166
275 276
146 162
124 125
194 211
105 121
92 676
216 217
94 618
65 66
67 512
87 103
46 62
135 152
244 1200
127 813
50 450
104 659
179 195
157 158
198 199
227 244
28 44
6 7
76 93
129 752
138 154
186 203
139 140
249 250
230 246
98 99
149 837
168 185
79 95
105 660
176 940
77 552
190 191
260 277
61 77
39 40
219 236
248 1215
20 36
108 674
172 173
282 283
153 169
131 132
2 18
112 128
223 224
160 940
94 110
72 73
133 834
135 776
53 69
66 515
49 444
45 492
152 847
172 923
189 985
164 165
276 1328
276 277
145 161
193 210
128 755
256 257
127 143
117 773
173 924
9 26
197 198
210 1071
260 1328
68 84
129 756
178 194
27 43
257 258
220 1112
238 254
160 176
113 757
119 135
42 59
60 485
101 117
134 151
60 76
221 1113
34 451
271 287
241 1189
152 168
56 469
75 92
231 232
212 228
93 109
16 33
38 39
92 675
108 125
94 617
264 265
245 261
244 1199
104 658
126 142
22 341
49 66
271 1311
8 25
186 202
71 72
134 775
52 458
176 939
77 551
12 13
82 99
196 1015
219 235
104 105
53 459
107 668
23 40
194 1072
234 251
13 14
240 1188
45 46
115 132
160 939
204 1113
152 846
189 984
105 106
66 514
49 443
252 268
172 922
56 73
59 484
267 284
193 209
128 754
46 47
226 243
25 351
78 79
67 515
93 616
138 139
208 225
167 184
19 20
89 106
230 231
79 80
259 276
220 1111
247 1214
134 779
30 47
171 172
241 258
20 21
60 484
200 217
52 53
151 840
263 264
112 113
182 199
34 450
88 659
6 342
144 810
141 158
56 468
100 642
53 54
233 250
34 50
133 837
145 146
215 232
174 191
26 27
237 238
92 674
86 87
156 173
266 283
67 83
244 1198
178 179
22 340
248 265
159 175
27 28
207 224
271 1310
8 24
136 847
270 271
50 515
134 774
189 206
52 457
106 666
100 116
148 165
156 923
251 267
77 550
255 1311
211 212
112 755
196 1014
192 208
60 61
240 257
41 57
271 272
53 458
107 667
152 153
222 239
133 149
1 2
181 198
194 1071
212 213
240 1187
244 245
115 131
93 94
204 1112
225 241
74 90
122 139
66 513
49 442
224 1188
243 1201
185 186
166 182
214 231
15 31
245 246
226 242
277 278
25 350
231 1214
126 127
118 779
258 274
107 123
186 187
167 183
76 553
218 219
89 105
199 215
204 220
48 64
278 279
272 1311
259 275
134 778
140 156
62 493
63 80
219 220
200 216
99 640
232 248
151 839
195 1013
81 97
4 21
88 658
6 341
60 550
141 157
173 189
179 1014
22 38
100 641
252 253
233 249
277 1329
265 281
36 458
55 471
114 130
37 54
193 194
130 758
174 190
206 222
59 60
59 487
55 71
285 286
88 105
266 282
24 349
147 163
93 619
70 87
271 1309
29 46
207 223
92 93
136 846
50 514
134 773
11 28
52 456
156 922
247 1217
148 164
184 185
255 1310
33 34
112 754
62 79
240 256
125 126
77 616
44 61
3 20
144 813
188 987
181 197
66 67
240 1186
204 1111
122 138
158 159
224 1187
155 172
7 8
